(declare-fun var0 () String)
(declare-fun var1 () String)
(declare-fun var2 () String)
(declare-fun var3 () String)
(declare-fun var4 () String)
(declare-fun var5 () String)
(declare-fun var6 () String)
(declare-fun var7 () String)
(declare-fun var8 () String)
(declare-fun var9 () String)
(declare-fun var10 () String)
(declare-fun var11 () String)
(declare-fun var12 () String)
(declare-fun var13 () String)
(declare-fun var14 () String)
(declare-fun var15 () String)
(declare-fun var16 () String)
(declare-fun var17 () String)
(declare-fun var18 () String)
(declare-fun var19 () String)
(declare-fun var20 () String)
(declare-fun var21 () String)
(declare-fun var22 () String)
(declare-fun var23 () String)
(declare-fun var24 () String)
(declare-fun var25 () String)
(declare-fun var26 () String)
(declare-fun var27 () String)
(declare-fun var28 () String)
(declare-fun var29 () String)
(declare-fun var30 () String)
(declare-fun var31 () String)
(declare-fun var32 () String)
(declare-fun var33 () String)
(declare-fun var34 () String)
(declare-fun var35 () String)
(declare-fun var36 () String)
(declare-fun var37 () String)
(declare-fun var38 () String)
(declare-fun var39 () String)
(assert (= 83 (str.len var0)))
(assert (= 3 (str.len var1)))
(assert (= 27 (str.len var2)))
(assert (= 8 (str.len var3)))
(assert (= 38 (str.len var4)))
(assert (= 4 (str.len var5)))
(assert (= 21 (str.len var6)))
(assert (= 99 (str.len var7)))
(assert (= 19 (str.len var8)))
(assert (= 3 (str.len var9)))
(assert (= 33 (str.len var10)))
(assert (= 13 (str.len var11)))
(assert (= 58 (str.len var12)))
(assert (= 44 (str.len var13)))
(assert (= 88 (str.len var14)))
(assert (= 7 (str.len var15)))
(assert (= 72 (str.len var16)))
(assert (= 61 (str.len var17)))
(assert (= 80 (str.len var18)))
(assert (= 59 (str.len var19)))
(assert (= 36 (str.len var20)))
(assert (= 64 (str.len var21)))
(assert (= 17 (str.len var22)))
(assert (= 45 (str.len var23)))
(assert (= 37 (str.len var24)))
(assert (= 83 (str.len var25)))
(assert (= 58 (str.len var26)))
(assert (= 60 (str.len var27)))
(assert (= 46 (str.len var28)))
(assert (= 32 (str.len var29)))
(assert (= 90 (str.len var30)))
(assert (= 22 (str.len var31)))
(assert (= 57 (str.len var32)))
(assert (= 53 (str.len var33)))
(assert (= 52 (str.len var34)))
(assert (= 28 (str.len var35)))
(assert (= 4 (str.len var36)))
(assert (= 51 (str.len var37)))
(assert (= 58 (str.len var38)))
(assert (= 10 (str.len var39)))
(assert (= 119 (str.len (str.++ var12 var17))))
(assert (= 39 (str.len (str.++ var20 var9))))
(assert (= 93 (str.len (str.++ var6 var16))))
(assert (= 35 (str.len (str.++ var2 var3))))
(check-sat)